NAME : OMNETRUN
COMMENT : 524.61
TYPE : CVRP
DIMENSION : 21
EDGE_WEIGHT_TYPE : EUC_2D
CAPACITY : 21
NODE_COORD_SECTION
1 0.107093 -0.77924
2 200.293 -493.788
3 227.918 -1040.28
4 207.193 -4051.75
5 68.2267 -4907
6 442.854 -224.881
7 487.854 -3066.36
8 389.43 -3588.17
9 431.138 -4671.92
10 342.558 -5489.77
11 668.044 -1097.27
12 647.545 -1474.29
13 724.601 -2088.49
14 511.364 -2454.09
15 686.887 -4034.76
16 698.996 -4394.53
17 555.768 -5154.63
18 700.531 -5574.63
19 970.501 -2712.21
20 853.456 -3210.11
21 936.913 -3603.32
DEMAND_SECTION
1 0
2 1
3 1
4 1
5 1
6 1
7 1
8 1
9 1
10 1
11 1
12 1
13 1
14 1
15 1
16 1
17 1
18 1
19 1
20 1
21 1
DEPOT_SECTION
1
-1
EOF
